p edge 70 713
e 1 2
e 1 4
e 1 6
e 1 13
e 1 16
e 1 20
e 1 21
e 1 26
e 1 30
e 1 32
e 1 38
e 1 40
e 1 41
e 1 42
e 1 44
e 1 47
e 1 53
e 1 57
e 1 58
e 1 60
e 1 62
e 1 68
e 1 70
e 2 3
e 2 8
e 2 9
e 2 10
e 2 11
e 2 15
e 2 18
e 2 31
e 2 34
e 2 41
e 2 44
e 2 48
e 2 61
e 2 67
e 3 4
e 3 5
e 3 7
e 3 14
e 3 21
e 3 24
e 3 25
e 3 28
e 3 30
e 3 34
e 3 35
e 3 37
e 3 39
e 3 45
e 3 49
e 3 57
e 3 63
e 3 66
e 4 10
e 4 15
e 4 17
e 4 25
e 4 26
e 4 27
e 4 28
e 4 32
e 4 33
e 4 36
e 4 38
e 4 41
e 4 43
e 4 46
e 4 48
e 4 52
e 4 53
e 4 55
e 4 58
e 4 67
e 4 70
e 5 6
e 5 7
e 5 9
e 5 10
e 5 14
e 5 17
e 5 22
e 5 31
e 5 32
e 5 43
e 5 48
e 5 62
e 5 63
e 5 70
e 6 13
e 6 16
e 6 17
e 6 18
e 6 19
e 6 30
e 6 32
e 6 33
e 6 36
e 6 37
e 6 38
e 6 42
e 6 44
e 6 46
e 6 47
e 6 49
e 6 50
e 6 53
e 6 59
e 6 62
e 6 65
e 6 68
e 6 69
e 7 10
e 7 11
e 7 14
e 7 19
e 7 25
e 7 27
e 7 28
e 7 29
e 7 36
e 7 40
e 7 42
e 7 43
e 7 45
e 7 50
e 7 52
e 7 55
e 7 60
e 7 64
e 8 9
e 8 12
e 8 15
e 8 17
e 8 20
e 8 22
e 8 24
e 8 28
e 8 30
e 8 33
e 8 36
e 8 40
e 8 43
e 8 46
e 8 47
e 8 48
e 8 49
e 8 54
e 8 59
e 8 62
e 8 65
e 8 66
e 8 68
e 8 70
e 9 10
e 9 20
e 9 22
e 9 23
e 9 25
e 9 26
e 9 28
e 9 29
e 9 30
e 9 39
e 9 41
e 9 42
e 9 47
e 9 59
e 9 62
e 9 65
e 9 66
e 9 67
e 9 68
e 10 15
e 10 16
e 10 24
e 10 25
e 10 27
e 10 34
e 10 36
e 10 42
e 10 55
e 10 56
e 10 58
e 10 61
e 10 62
e 10 65
e 10 67
e 10 68
e 11 13
e 11 15
e 11 17
e 11 18
e 11 24
e 11 33
e 11 39
e 11 40
e 11 41
e 11 44
e 11 49
e 11 50
e 11 52
e 11 53
e 11 60
e 11 69
e 11 70
e 12 16
e 12 17
e 12 31
e 12 43
e 12 44
e 12 45
e 12 48
e 12 49
e 12 53
e 12 55
e 12 57
e 12 59
e 12 66
e 12 67
e 12 69
e 13 22
e 13 23
e 13 29
e 13 31
e 13 33
e 13 34
e 13 39
e 13 44
e 13 45
e 13 46
e 13 48
e 13 49
e 13 59
e 13 60
e 13 61
e 13 63
e 13 66
e 14 17
e 14 18
e 14 22
e 14 23
e 14 24
e 14 35
e 14 36
e 14 39
e 14 40
e 14 43
e 14 44
e 14 45
e 14 46
e 14 50
e 14 55
e 14 66
e 14 70
e 15 16
e 15 19
e 15 21
e 15 24
e 15 29
e 15 30
e 15 33
e 15 40
e 15 44
e 15 46
e 15 48
e 15 51
e 15 53
e 15 54
e 15 55
e 15 56
e 15 57
e 15 62
e 15 66
e 15 69
e 16 17
e 16 19
e 16 24
e 16 26
e 16 28
e 16 29
e 16 40
e 16 41
e 16 46
e 16 49
e 16 53
e 16 54
e 16 55
e 16 67
e 16 68
e 17 18
e 17 19
e 17 22
e 17 23
e 17 27
e 17 28
e 17 31
e 17 35
e 17 36
e 17 39
e 17 42
e 17 43
e 17 44
e 17 48
e 17 50
e 17 53
e 17 57
e 17 58
e 17 69
e 18 19
e 18 23
e 18 24
e 18 36
e 18 37
e 18 39
e 18 41
e 18 45
e 18 55
e 18 56
e 18 58
e 18 60
e 18 69
e 19 20
e 19 31
e 19 34
e 19 35
e 19 36
e 19 38
e 19 39
e 19 51
e 19 54
e 19 55
e 19 57
e 19 59
e 20 22
e 20 23
e 20 25
e 20 26
e 20 31
e 20 33
e 20 37
e 20 38
e 20 39
e 20 41
e 20 43
e 20 45
e 20 52
e 20 53
e 20 56
e 20 68
e 20 70
e 21 24
e 21 27
e 21 29
e 21 30
e 21 34
e 21 38
e 21 44
e 21 47
e 21 51
e 21 55
e 21 57
e 21 58
e 21 64
e 21 69
e 21 70
e 22 26
e 22 32
e 22 38
e 22 40
e 22 43
e 22 44
e 22 46
e 22 49
e 22 50
e 22 51
e 22 53
e 22 56
e 22 57
e 22 59
e 22 63
e 22 69
e 23 33
e 23 34
e 23 35
e 23 38
e 23 39
e 23 45
e 23 54
e 23 61
e 23 66
e 23 69
e 24 26
e 24 35
e 24 36
e 24 42
e 24 48
e 24 53
e 24 54
e 24 60
e 24 62
e 24 65
e 24 67
e 24 68
e 25 29
e 25 30
e 25 33
e 25 41
e 25 43
e 25 48
e 25 51
e 25 60
e 25 61
e 25 63
e 25 65
e 25 68
e 26 36
e 26 38
e 26 40
e 26 47
e 26 50
e 26 52
e 26 53
e 26 65
e 26 66
e 26 69
e 26 70
e 27 28
e 27 32
e 27 34
e 27 35
e 27 41
e 27 49
e 27 55
e 27 61
e 27 62
e 27 67
e 28 30
e 28 35
e 28 37
e 28 41
e 28 44
e 28 45
e 28 46
e 28 47
e 28 50
e 28 53
e 28 55
e 28 57
e 28 58
e 28 63
e 28 65
e 28 67
e 29 32
e 29 33
e 29 41
e 29 45
e 29 47
e 29 51
e 29 54
e 29 56
e 29 58
e 29 61
e 29 62
e 29 63
e 29 70
e 30 31
e 30 33
e 30 35
e 30 36
e 30 39
e 30 42
e 30 43
e 30 44
e 30 45
e 30 46
e 30 47
e 30 48
e 30 49
e 30 50
e 30 51
e 30 53
e 30 54
e 30 57
e 30 58
e 30 62
e 30 65
e 30 66
e 30 70
e 31 34
e 31 37
e 31 47
e 31 55
e 31 60
e 31 64
e 31 68
e 32 36
e 32 38
e 32 42
e 32 44
e 32 45
e 32 49
e 32 64
e 32 66
e 33 34
e 33 40
e 33 41
e 33 42
e 33 48
e 33 49
e 33 52
e 33 54
e 33 55
e 33 60
e 33 62
e 33 69
e 34 40
e 34 44
e 34 46
e 34 47
e 34 55
e 34 58
e 34 59
e 34 62
e 34 68
e 35 43
e 35 51
e 35 52
e 35 54
e 35 58
e 35 59
e 35 63
e 35 64
e 36 37
e 36 41
e 36 49
e 36 50
e 36 51
e 36 52
e 36 56
e 36 57
e 36 68
e 36 69
e 37 43
e 37 45
e 37 47
e 37 50
e 37 54
e 37 56
e 37 57
e 37 60
e 37 68
e 38 39
e 38 41
e 38 42
e 38 43
e 38 44
e 38 46
e 38 47
e 38 50
e 38 54
e 38 62
e 38 63
e 38 64
e 38 65
e 38 68
e 39 40
e 39 53
e 39 55
e 39 60
e 39 67
e 40 42
e 40 47
e 40 50
e 40 51
e 40 55
e 40 62
e 41 42
e 41 45
e 41 52
e 41 53
e 41 61
e 41 63
e 41 65
e 42 44
e 42 45
e 42 51
e 42 56
e 42 57
e 42 63
e 42 64
e 42 66
e 42 69
e 42 70
e 43 45
e 43 48
e 43 52
e 43 53
e 43 54
e 43 67
e 43 68
e 43 69
e 44 47
e 44 49
e 44 50
e 44 51
e 44 52
e 44 59
e 44 61
e 44 68
e 44 69
e 44 70
e 45 51
e 45 52
e 45 58
e 45 59
e 45 63
e 45 64
e 45 68
e 46 49
e 46 51
e 46 53
e 46 56
e 46 58
e 46 60
e 46 69
e 47 50
e 47 51
e 47 54
e 47 57
e 47 64
e 47 65
e 47 67
e 47 70
e 48 50
e 48 52
e 48 54
e 48 57
e 48 63
e 48 64
e 48 66
e 48 69
e 48 70
e 49 53
e 49 55
e 49 60
e 49 62
e 49 68
e 50 51
e 50 56
e 50 58
e 50 61
e 50 62
e 50 64
e 50 65
e 50 69
e 51 55
e 51 56
e 51 58
e 51 64
e 51 68
e 51 70
e 52 53
e 52 54
e 52 55
e 52 58
e 52 64
e 52 66
e 52 69
e 53 57
e 53 59
e 53 65
e 53 70
e 54 59
e 54 61
e 54 64
e 54 65
e 54 66
e 55 59
e 55 60
e 55 64
e 55 65
e 56 62
e 56 63
e 56 69
e 56 70
e 57 58
e 57 60
e 57 64
e 57 67
e 57 70
e 58 61
e 58 68
e 58 70
e 59 62
e 59 63
e 59 64
e 59 70
e 60 69
e 61 62
e 61 63
e 61 64
e 61 67
e 61 68
e 61 70
e 62 65
e 63 65
e 63 67
e 64 66
e 64 70
e 66 69
e 68 70